s = array1d(1..400, [0, 0, 0, 0, 17, 0, 10, 3, 11, 0, 9, 0, 0, 15, 4, 0, 7, 5, 0, 0, 0, 0, 0, 13, 0, 16, 12, 10, 0, 0, 18, 7, 0, 0, 5, 0, 0, 11, 17, 8, 15, 0, 10, 11, 0, 0, 0, 6, 3, 19, 0, 0, 2, 17, 0, 8, 0, 0, 0, 16, 0, 4, 3, 15, 10, 9, 0, 14, 0, 0, 0, 0, 0, 5, 0, 0, 12, 16, 8, 0, 0, 13, 16, 0, 12, 11, 0, 0, 0, 0, 1, 0, 5, 0, 15, 0, 0, 17, 3, 4, 17, 6, 0, 18, 2, 5, 0, 0, 0, 3, 0, 4, 0, 16, 0, 15, 0, 13, 0, 0, 12, 0, 0, 0, 4, 2, 0, 11, 15, 0, 0, 6, 0, 10, 0, 16, 8, 0, 14, 0, 19, 8, 18, 0, 0, 0, 6, 0, 2, 13, 0, 0, 0, 0, 11, 0, 1, 10, 5, 9, 0, 3, 0, 0, 16, 0, 14, 0, 13, 17, 0, 8, 0, 0, 0, 2, 9, 4, 0, 12, 8, 7, 19, 0, 0, 0, 0, 0, 0, 0, 15, 14, 0, 2, 0, 12, 16, 0, 11, 0, 13, 0, 6, 0, 15, 0, 0, 0, 0, 12, 2, 0, 19, 4, 0, 7, 0, 0, 0, 10, 0, 15, 13, 0, 0, 1, 0, 9, 0, 10, 0, 0, 16, 0, 8, 0, 18, 3, 12, 0, 0, 12, 9, 2, 13, 17, 0, 0, 19, 1, 0, 10, 11, 0, 0, 0, 6, 0, 0, 0, 14, 0, 1, 7, 0, 13, 0, 0, 18, 0, 17, 19, 12, 3, 0, 6, 0, 0, 0, 0, 3, 0, 0, 0, 11, 0, 4, 2, 0, 0, 6, 16, 7, 0, 17, 0, 10, 0, 0, 1, 0, 0, 0, 10, 7, 15, 13, 5, 8, 0, 0, 0, 0, 9, 2, 3, 0, 18, 0, 6, 0, 0, 0, 0, 19, 0, 5, 0, 0, 16, 0, 18, 4, 1, 6, 0, 14, 8, 10, 17, 0, 0, 0, 6, 0, 0, 0, 1, 9, 18, 16, 0, 3, 0, 19, 17, 0, 0, 13, 14, 0, 18, 0, 3, 0, 8, 17, 7, 14, 0, 11, 0, 0, 6, 1, 9, 0, 0, 2, 0, 9, 16, 5, 14, 0, 3, 19, 0, 17, 0, 0, 11, 13, 0, 0, 0, 0, 2, 0, 0]);
n = 20;
